NAME : portgen-29-32
COMMENT : portgen N=29, seed=32
TYPE : TSP
DIMENSION : 29
EDGE_WEIGHT_TYPE : EUC_2D
NODE_COORD_SECTION
1 938467 321219
2 442133 716170
3 41633 310317
4 891809 809899
5 391645 971465
6 311953 795581
7 511651 121761
8 356417 43005
9 87322 450629
10 226570 890043
11 336632 169872
12 30854 717706
13 984880 451712
14 204148 932377
15 212064 886373
16 559893 964345
17 462024 255533
18 503858 554950
19 186179 933038
20 462407 589302
21 254395 533516
22 193695 162042
23 138146 754350
24 339403 999810
25 703984 160671
26 299772 414118
27 314613 237338
28 593827 974121
29 859194 186599
